45 89 53 6 73 10 3 1 48 2 29 23 34 77 63 21 26 83 20 35 28 22 17 90 66 79 39 11 40 0 62 86 5 70 61 27 93 43 99 58 94 65 57 7 85 47 37 95 88 36 31 50 33 96 54 91 49 13 84 80 92 41 81 24 75 38 55 19 44 74 12 8 15 60 97 25 18 16 69 72 67 51 42 32 46 30 71 14 76 98 4 9 64 59 68 82 87 78 56 52 

